10
-1 3 93 13 33 9 57 99 88 77
4 -1 77 42 21 16 34 45 32 13 
45 17 -1 36 16 28 25 2 43 63
39 90 80 -1 56 7 91 13 42 34
28 46 88 33 -1 25 57 15 22 36
3 88 18 46 92 -1 7 5 24 34 21
44 26 33 27 84 39 -1 69 32 11
9 35 23 42 35 54 53 -1 24 53
93 21 25 32 65 34 50 39 -1 42
21 23 42 36 39 20 39 53 29 -1